(set-info :origin "SVCOMP13 benchmarks generated by Arie Gurfinkel")
(set-info :status unsat)
(set-logic HORN)
(declare-fun cp-rel-entry () Bool)
(declare-fun cp-rel-bb1.i.i (Real Real Real Real) Bool)
(declare-fun cp-rel-bb1.i.i21.i.i () Bool)
(assert |cp-rel-entry|)
(assert (forall ((?A Real) (?B Real) (?C Real) (?D Real) (?E Bool) )(let (($x574042 (and |cp-rel-entry| (<= ?D 0.0) (>= ?C 1.0) (<= ?C 1.0) (>= ?B 1.0) (<= ?B 1.0) (>= ?A 0.0) (<= ?A 0.0) (= ?E true) (>= ?D 0.0))))
(=> $x574042 (|cp-rel-bb1.i.i| ?A ?B ?C ?D))))
)
(assert (forall ((?A Real) (?B Real) (?C Real) (?D Real) (?E Real) (?F Real) (?G Real) (?H Real) (?I Bool) (?J Bool) (?K Bool) (?L Bool) (?M Bool) (?N Bool) (?O Real) (?P Real) (?Q Bool) (?R Bool) (?S Bool) (?T Bool) (?U Bool) (?V Bool) (?W Real) (?X Real) (?Y Bool) (?Z Bool) (?A1 Bool) (?B1 Bool) (?C1 Bool) (?D1 Bool) (?E1 Bool) (?F1 Real) (?G1 Bool) (?H1 Bool) (?I1 Bool) (?J1 Bool) (?K1 Bool) (?L1 Bool) (?M1 Real) (?N1 Real) (?O1 Real) (?P1 Real) (?Q1 Bool) (?R1 Bool) (?S1 Bool) (?T1 Bool) (?U1 Bool) (?V1 Bool) (?W1 Bool) (?X1 Real) (?Y1 Real) (?Z1 Bool) (?A2 Bool) (?B2 Real) (?C2 Bool) (?D2 Real) (?E2 Real) (?F2 Bool) (?G2 Real) (?H2 Real) (?I2 Bool) (?J2 Real) (?K2 Bool) (?L2 Bool) (?M2 Bool) (?N2 Bool) (?O2 Bool) (?P2 Bool) (?Q2 Bool) )(let (($x286713 (|cp-rel-bb1.i.i| ?E ?F ?G ?H)))
(let (($x299784 (= ?A2 (or ?Q2 ?P2))))
(let (($x535270 (or (not ?I) (and ?J ?K (not ?L)))))
(let (($x349626 (or (not ?I) ?K)))
(let (($x153223 (not ?M)))
(let (($x445769 (or $x153223 (and ?I ?N (<= ?O ?P) (>= ?O ?P)) (and ?J ?Q ?L (<= ?O ?B) (>= ?O ?B)))))
(let (($x341615 (or $x153223 (and ?N (not ?Q)) (and ?Q (not ?N)))))
(let (($x21437 (or (not ?R) (and ?M ?S (not ?T)))))
(let (($x428569 (or (not ?R) ?S)))
(let (($x835385 (not ?U)))
(let (($x865729 (or $x835385 (and ?R ?V (<= ?W ?X) (>= ?W ?X)) (and ?M ?Y ?T (<= ?W ?A) (>= ?W ?A)))))
(let (($x728999 (or $x835385 (and ?V (not ?Y)) (and ?Y (not ?V)))))
(let (($x49178 (or (not ?Z) (and ?U ?A1 ?B1))))
(let (($x825854 (or (not ?Z) ?A1)))
(let (($x39641 (not ?C1)))
(let (($x421282 (or $x39641 (and ?Z ?D1 ?E1 (<= ?F1 ?C) (>= ?F1 ?C)) (and ?U ?G1 (not ?B1) (<= ?F1 1.0) (>= ?F1 1.0)))))
(let (($x281618 (or $x39641 (and ?D1 (not ?G1)) (and ?G1 (not ?D1)))))
(let (($x151147 (or (not ?H1) (and ?C1 ?I1 (not ?J1)))))
(let (($x282029 (or (not ?H1) ?I1)))
(let (($x410430 (>= ?O1 ?O)))
(let (($x99153 (<= ?O1 ?O)))
(let (($x215694 (and ?Z ?R1 (not ?E1) (<= ?M1 0.0) (>= ?M1 0.0) (<= ?N1 0.0) (>= ?N1 0.0) $x99153 $x410430)))
(let (($x921029 (>= ?N1 ?F1)))
(let (($x2982 (<= ?N1 ?F1)))
(let (($x397901 (and ?C1 ?Q1 ?J1 (<= ?M1 ?D) (>= ?M1 ?D) $x2982 $x921029 $x99153 $x410430)))
(let (($x649817 (and ?H1 ?L1 (<= ?M1 ?D) (>= ?M1 ?D) $x2982 $x921029 (<= ?O1 ?P1) (>= ?O1 ?P1))))
(let (($x321953 (not ?K1)))
(let (($x301564 (or $x321953 (and ?L1 (not ?Q1) (not ?R1)) (and ?Q1 (not ?L1) (not ?R1)) (and ?R1 (not ?L1) (not ?Q1)))))
(let (($x215150 (or (not ?S1) (and ?K1 ?T1 ?U1))))
(let (($x508761 (or (not ?S1) ?T1)))
(let (($x506827 (or (not ?V1) (and ?S1 ?W1 (<= ?X1 ?Y1) (>= ?X1 ?Y1)) (and ?K1 ?Z1 (not ?U1) (<= ?X1 ?M1) (>= ?X1 ?M1)))))
(let (($x420617 (or (not ?V1) (and ?W1 (not ?Z1)) (and ?Z1 (not ?W1)))))
(let (($x29066 (= ?V1 true)))
(let (($x850345 (= ?A2 true)))
(let (($x577097 (= ?L (= ?B2 0.0))))
(let (($x242965 (= ?D2 (ite ?C2 1.0 0.0))))
(let (($x346908 (= ?T (= ?E2 0.0))))
(let (($x314873 (= ?X (ite ?F2 1.0 0.0))))
(let (($x554392 (= ?B1 (= ?G2 0.0))))
(let (($x192321 (= ?E1 (= ?H2 0.0))))
(let (($x866120 (= ?I2 (not (<= ?O 0.0)))))
(let (($x338411 (= ?J2 (+ (~ 1.0) ?O))))
(let (($x403486 (= ?P1 (ite ?I2 ?J2 ?O))))
(let (($x836083 (= ?K2 (not (= ?N1 0.0)))))
(let (($x57232 (= ?L2 (= ?M1 0.0))))
(let (($x289391 (= ?M2 (not (<= ?O1 1.0)))))
(let (($x89463 (= ?N2 (and ?K2 ?L2))))
(let (($x441351 (= ?U1 (and ?N2 ?M2))))
(let (($x211682 (= ?O2 (= ?W 0.0))))
(let (($x394226 (= ?Y1 (ite ?O2 1.0 ?M1))))
(let (($x108702 (= ?P2 (not (= ?O1 0.0)))))
(let (($x129787 (= ?Q2 (= ?X1 0.0))))
(let (($x125706 (and (|cp-rel-bb1.i.i| ?A ?B ?C ?D) $x129787 $x108702 $x394226 $x211682 $x441351 $x89463 $x289391 $x57232 $x836083 $x403486 $x338411 $x866120 (= ?J1 (= ?D 0.0)) $x192321 $x554392 $x314873 (= ?F2 (= ?A 0.0)) $x346908 (= ?P (+ ?D2 ?B)) $x242965 (= ?C2 (not (<= 2.0 ?B))) $x577097 (>= ?H ?X1) (<= ?H ?X1) (>= ?G ?N1) (<= ?G ?N1) (>= ?F ?O1) (<= ?F ?O1) (>= ?E ?W) (<= ?E ?W) $x850345 $x29066 $x420617 $x506827 $x508761 $x215150 $x301564 (or $x321953 $x649817 $x397901 $x215694) $x282029 $x151147 $x281618 $x421282 $x825854 $x49178 $x728999 $x865729 $x428569 $x21437 $x341615 $x445769 $x349626 $x535270 $x299784)))
(=> $x125706 $x286713)))))))))))))))))))))))))))))))))))))))))))))))))))))))
)
(assert (forall ((?A Real) (?B Real) (?C Real) (?D Real) (?E Bool) (?F Bool) (?G Bool) (?H Bool) (?I Bool) (?J Bool) (?K Real) (?L Real) (?M Bool) (?N Bool) (?O Bool) (?P Bool) (?Q Bool) (?R Bool) (?S Real) (?T Real) (?U Bool) (?V Bool) (?W Bool) (?X Bool) (?Y Bool) (?Z Bool) (?A1 Bool) (?B1 Real) (?C1 Bool) (?D1 Bool) (?E1 Bool) (?F1 Bool) (?G1 Bool) (?H1 Bool) (?I1 Real) (?J1 Real) (?K1 Real) (?L1 Real) (?M1 Bool) (?N1 Bool) (?O1 Bool) (?P1 Bool) (?Q1 Bool) (?R1 Bool) (?S1 Bool) (?T1 Real) (?U1 Real) (?V1 Bool) (?W1 Bool) (?X1 Real) (?Y1 Bool) (?Z1 Real) (?A2 Real) (?B2 Bool) (?C2 Real) (?D2 Real) (?E2 Bool) (?F2 Real) (?G2 Bool) (?H2 Bool) (?I2 Bool) (?J2 Bool) (?K2 Bool) (?L2 Bool) (?M2 Bool) )(let (($x299784 (= ?W1 (or ?M2 ?L2))))
(let (($x535270 (or (not ?E) (and ?F ?G (not ?H)))))
(let (($x349626 (or (not ?E) ?G)))
(let (($x153223 (not ?I)))
(let (($x350610 (or $x153223 (and ?E ?J (<= ?K ?L) (>= ?K ?L)) (and ?F ?M ?H (<= ?K ?B) (>= ?K ?B)))))
(let (($x341615 (or $x153223 (and ?J (not ?M)) (and ?M (not ?J)))))
(let (($x21437 (or (not ?N) (and ?I ?O (not ?P)))))
(let (($x428569 (or (not ?N) ?O)))
(let (($x835385 (not ?Q)))
(let (($x577792 (or $x835385 (and ?N ?R (<= ?S ?T) (>= ?S ?T)) (and ?I ?U ?P (<= ?S ?A) (>= ?S ?A)))))
(let (($x728999 (or $x835385 (and ?R (not ?U)) (and ?U (not ?R)))))
(let (($x49178 (or (not ?V) (and ?Q ?W ?X))))
(let (($x825854 (or (not ?V) ?W)))
(let (($x39641 (not ?Y)))
(let (($x174031 (or $x39641 (and ?V ?Z ?A1 (<= ?B1 ?C) (>= ?B1 ?C)) (and ?Q ?C1 (not ?X) (<= ?B1 1.0) (>= ?B1 1.0)))))
(let (($x281618 (or $x39641 (and ?Z (not ?C1)) (and ?C1 (not ?Z)))))
(let (($x151147 (or (not ?D1) (and ?Y ?E1 (not ?F1)))))
(let (($x282029 (or (not ?D1) ?E1)))
(let (($x410430 (>= ?K1 ?K)))
(let (($x99153 (<= ?K1 ?K)))
(let (($x215694 (and ?V ?N1 (not ?A1) (<= ?I1 0.0) (>= ?I1 0.0) (<= ?J1 0.0) (>= ?J1 0.0) $x99153 $x410430)))
(let (($x921029 (>= ?J1 ?B1)))
(let (($x2982 (<= ?J1 ?B1)))
(let (($x845356 (and ?Y ?M1 ?F1 (<= ?I1 ?D) (>= ?I1 ?D) $x2982 $x921029 $x99153 $x410430)))
(let (($x599261 (and ?D1 ?H1 (<= ?I1 ?D) (>= ?I1 ?D) $x2982 $x921029 (<= ?K1 ?L1) (>= ?K1 ?L1))))
(let (($x321953 (not ?G1)))
(let (($x301564 (or $x321953 (and ?H1 (not ?M1) (not ?N1)) (and ?M1 (not ?H1) (not ?N1)) (and ?N1 (not ?H1) (not ?M1)))))
(let (($x215150 (or (not ?O1) (and ?G1 ?P1 ?Q1))))
(let (($x508761 (or (not ?O1) ?P1)))
(let (($x506827 (or (not ?R1) (and ?O1 ?S1 (<= ?T1 ?U1) (>= ?T1 ?U1)) (and ?G1 ?V1 (not ?Q1) (<= ?T1 ?I1) (>= ?T1 ?I1)))))
(let (($x420617 (or (not ?R1) (and ?S1 (not ?V1)) (and ?V1 (not ?S1)))))
(let (($x29066 (= ?R1 true)))
(let (($x577097 (= ?H (= ?X1 0.0))))
(let (($x242965 (= ?Z1 (ite ?Y1 1.0 0.0))))
(let (($x346908 (= ?P (= ?A2 0.0))))
(let (($x314873 (= ?T (ite ?B2 1.0 0.0))))
(let (($x554392 (= ?X (= ?C2 0.0))))
(let (($x192321 (= ?A1 (= ?D2 0.0))))
(let (($x866120 (= ?E2 (not (<= ?K 0.0)))))
(let (($x338411 (= ?F2 (+ (~ 1.0) ?K))))
(let (($x403486 (= ?L1 (ite ?E2 ?F2 ?K))))
(let (($x836083 (= ?G2 (not (= ?J1 0.0)))))
(let (($x57232 (= ?H2 (= ?I1 0.0))))
(let (($x289391 (= ?I2 (not (<= ?K1 1.0)))))
(let (($x89463 (= ?J2 (and ?G2 ?H2))))
(let (($x441351 (= ?Q1 (and ?J2 ?I2))))
(let (($x211682 (= ?K2 (= ?S 0.0))))
(let (($x394226 (= ?U1 (ite ?K2 1.0 ?I1))))
(let (($x108702 (= ?L2 (not (= ?K1 0.0)))))
(let (($x129787 (= ?M2 (= ?T1 0.0))))
(let (($x286713 (|cp-rel-bb1.i.i| ?A ?B ?C ?D)))
(let (($x843379 (and $x286713 $x129787 $x108702 $x394226 $x211682 $x441351 $x89463 $x289391 $x57232 $x836083 $x403486 $x338411 $x866120 (= ?F1 (= ?D 0.0)) $x192321 $x554392 $x314873 (= ?B2 (= ?A 0.0)) $x346908 (= ?L (+ ?Z1 ?B)) $x242965 (= ?Y1 (not (<= 2.0 ?B))) $x577097 (not (= ?W1 true)) $x29066 $x420617 $x506827 $x508761 $x215150 $x301564 (or $x321953 $x599261 $x845356 $x215694) $x282029 $x151147 $x281618 $x174031 $x825854 $x49178 $x728999 $x577792 $x428569 $x21437 $x341615 $x350610 $x349626 $x535270 $x299784)))
(=> $x843379 |cp-rel-bb1.i.i21.i.i|))))))))))))))))))))))))))))))))))))))))))))))))))))))
)
(assert (not cp-rel-bb1.i.i21.i.i))
(check-sat)
